proyfinal/src/viki/013/andrea/andrea-localstore/experimentInOfficeAgust.take6/worker_4/3db6b91e-b066-4fc7-b2ff-58c0799e1fd1.als.cnf.out
Reading from standard input... Use '--help' for help.
============================[ Problem Statistics ]=============================
|                                                                             |
|  Number of variables:         87638                                         |
|  Number of clauses:          161767                                         |
|  Parse time:                   0.03 s                                       |
|                                                                             |
============================[ Search Statistics ]==============================
| Conflicts |          ORIGINAL         |          LEARNT          | Progress |
|           |    Vars  Clauses Literals |    Limit  Clauses Lit/Cl |          |
===============================================================================
|       100 |   62632   106069   265197 |    38891      100      7 | 28.533 % |
|       250 |   62624   106037   265109 |    42781      242     52 | 28.542 % |
|       475 |   62624   106037   265109 |    47059      467    109 | 28.542 % |
|       812 |   62612   106021   265065 |    51765      783    103 | 28.556 % |
|      1318 |   62612   105989   264977 |    56941     1276     76 | 28.556 % |
|      2077 |   44038    51052   130153 |    62635     1796     66 | 49.750 % |
===============================================================================
restarts              : 15
conflicts             : 3112           (8525 /sec)
decisions             : 12406          (0.00 % random) (33985 /sec)
propagations          : 4309373        (11804949 /sec)
conflict literals     : 152854         (49.20 % deleted)
Memory used           : 24.81 MB
CPU time              : 0.365048 s

UNSATISFIABLE
